Solver command line: ['C:\\gurobi1002\\win64\\bin\\gurobi.bat']

Set parameter Username
Academic license - for non-commercial use only - expires 2024-08-20
Read LP format model from file C:\Users\mhafeman\AppData\Local\Temp\tmpeg7a5q62.pyomo.lp
Reading time = 1.34 seconds
obj: 297841 rows, 262799 columns, 709547 nonzeros
Gurobi Optimizer version 10.0.2 build v10.0.2rc0 (win64)

CPU model: AMD Ryzen 7 3800X 8-Core Processor, instruction set [SSE2|AVX|AVX2]
Thread count: 8 physical cores, 16 logical processors, using up to 16 threads

Optimize a model with 297841 rows, 262799 columns and 709547 nonzeros
Model fingerprint: 0x992620ec
Model has 8759 quadratic constraints
Variable types: 201480 continuous, 61319 integer (43800 binary)
Coefficient statistics:
  Matrix range     [1e-04, 3e+02]
  QMatrix range    [1e+00, 1e+00]
  Objective range  [1e-02, 3e+02]
  Bounds range     [1e+00, 3e+00]
  RHS range        [1e-03, 1e+03]
Presolve removed 222705 rows and 189350 columns
Presolve time: 0.92s
Presolved: 75136 rows, 73449 columns, 185310 nonzeros
Variable types: 36725 continuous, 36724 integer (36724 binary)
Found heuristic solution: objective -1.17051e+07
Deterministic concurrent LP optimizer: primal and dual simplex
Showing first log only...

Concurrent spin time: 0.00s

Solved with dual simplex

Root relaxation: objective -2.843459e+07, 10819 iterations, 0.35 seconds (0.39 work units)

    Nodes    |    Current Node    |     Objective Bounds      |     Work
 Expl Unexpl |  Obj  Depth IntInf | Incumbent    BestBd   Gap | It/Node Time

     0     0 -2.843e+07    0  164 -1.171e+07 -2.843e+07   143%     -    2s
H    0     0                    -1.55363e+07 -2.843e+07  83.0%     -    3s
H    0     0                    -2.84341e+07 -2.843e+07  0.00%     -    3s

Cutting planes:
  Gomory: 113
  Cover: 2
  Implied bound: 3
  Clique: 1
  MIR: 14
  Flow cover: 24

Explored 1 nodes (16186 simplex iterations) in 3.27 seconds (3.34 work units)
Thread count was 16 (of 16 available processors)

Solution count 3: -2.84341e+07 -1.55363e+07 -1.17051e+07 

Optimal solution found (tolerance 1.00e-04)
Best objective -2.843411387392e+07, best bound -2.843459145275e+07, gap 0.0017%

